Version identifier: 22.1.1.0 | 2022-11-28 | 9160aff4d
CPXPARAM_ClockType                               1
CPXPARAM_Read_DataCheck                          1
CPXPARAM_Threads                                 1
CPXPARAM_TimeLimit                               7200
CPXPARAM_MIP_Tolerances_AbsMIPGap                0
CPXPARAM_MIP_Tolerances_MIPGap                   0
CPXPARAM_MIP_Tolerances_Integrality              0
Tried aggregator 2 times.
MIP Presolve eliminated 5584 rows and 2576 columns.
MIP Presolve modified 1878 coefficients.
Aggregator did 380 substitutions.
Reduced MIP has 1284 rows, 950 columns, and 3138 nonzeros.
Reduced MIP has 950 binaries, 0 generals, 0 SOSs, and 0 indicators.
Presolve time = 0.02 sec. (7.35 ticks)
Found incumbent of value 0.000000 after 0.02 sec. (8.61 ticks)
Probing time = 0.00 sec. (2.00 ticks)
Tried aggregator 1 time.
Detecting symmetries...
Reduced MIP has 1284 rows, 950 columns, and 3138 nonzeros.
Reduced MIP has 950 binaries, 0 generals, 0 SOSs, and 0 indicators.
Presolve time = 0.01 sec. (2.87 ticks)
Probing time = 0.00 sec. (1.98 ticks)
Clique table members: 2569.
MIP emphasis: balance optimality and feasibility.
MIP search method: dynamic search.
Parallel mode: none, using 1 thread.
Root relaxation solution time = 0.00 sec. (2.77 ticks)

        Nodes                                         Cuts/
   Node  Left     Objective  IInf  Best Integer    Best Bound    ItCnt     Gap

*     0+    0                            0.0000      190.0000              --- 
*     0     0      integral     0      190.0000      190.0000      342    0.00%
Elapsed time = 0.04 sec. (20.71 ticks, tree = 0.00 MB, solutions = 2)

Root node processing (before b&c):
  Real time             =    0.04 sec. (20.85 ticks)
Sequential b&c:
  Real time             =    0.00 sec. (0.00 ticks)
                          ------------
Total (root+branch&cut) =    0.04 sec. (20.85 ticks)
Solution is feasible.

---------------------
@@@ MIP_optimal
>>> Benchmark mc2024_track1_180.cnf k 2 OPT 190 TimeCost 0.6641964912414551 TimeSolve 0.03875899314880371 TimeRead 0.00574946403503418 TimeTrans 0.6196880340576172
